asp/input/in_30_15_9_4.lp
#const n = 30.
#const k = 15.
#const h = 9.
tile(1,1,10).
tile(2,12,4).
tile(3,9,4).
tile(4,9,9).
tile(5,3,3).
tile(6,12,3).
tile(7,8,9).
tile(8,10,12).
tile(9,9,1).
tile(10,7,14).
tile(11,6,4).
tile(12,9,6).
tile(13,14,1).
tile(14,7,4).
tile(15,10,4).
tile(16,9,4).
tile(17,9,7).
tile(18,14,14).
tile(19,11,3).
tile(20,2,8).
tile(21,13,6).
tile(22,2,9).
tile(23,4,12).
tile(24,1,15).
tile(25,2,5).
tile(26,1,8).
tile(27,7,14).
tile(28,9,14).
tile(29,6,7).
tile(30,7,12).
