minizinc/input/in_30_15_9_4.dzn
n = 30;
k = 15;
h = 9;
tiles = array2d(1..n, 1..2,
[ 1,10
, 12,4
, 9,4
, 9,9
, 3,3
, 12,3
, 8,9
, 10,12
, 9,1
, 7,14
, 6,4
, 9,6
, 14,1
, 7,4
, 10,4
, 9,4
, 9,7
, 14,14
, 11,3
, 2,8
, 13,6
, 2,9
, 4,12
, 1,15
, 2,5
, 1,8
, 7,14
, 9,14
, 6,7
, 7,12
]);